(set-info :smt-lib-version 2.6)
(set-logic LRA)
(set-info :source |
   Monniaux, David; Quantifier Elimination by Lazy Model Enumeration, CAV 2010
|)
(set-info :category "random")
; ./Mjollnir_examples/B5/formula_244.m
(set-info :status unsat)
(assert
 (forall ((|v17:0| Real) )(forall ((|v16:1| Real) )(forall ((|v15:2| Real) )(forall ((|v14:3| Real) )(forall ((|v13:4| Real) )(forall ((|v12:5| Real) )(exists ((|v11:6| Real) )(exists ((|v10:7| Real) )(exists ((|v9:8| Real) )(exists ((|v8:9| Real) )(exists ((|v7:10| Real) )(exists ((|v6:11| Real) )(forall ((|v5:12| Real) )(forall ((|v4:13| Real) )(forall ((|v3:14| Real) )(forall ((|v2:15| Real) )(forall ((|v1:16| Real) )(forall ((|v0:17| Real) )(let ((?x179 (- 9)))
(let ((?x415 (+ (+ (* 13 |v10:7|) (* 14 |v12:5|)) (* ?x179 |v4:13|))))
(let ((?x10 (- 7)))
(let ((?x408 (+ (+ (* (- 16) |v17:0|) (* ?x10 |v0:17|)) (* 0 |v4:13|))))
(let ((?x304 20))
(let ((?x397 (+ (+ (* (- 18) |v17:0|) (* 4 |v11:6|)) (* 4 |v10:7|))))
(let ((?x82 (- 3)))
(let ((?x391 (+ (+ (+ (* (- 10) |v16:1|) |v6:11|) (* (- 8) |v15:2|)) (* ?x82 |v11:6|))))
(let ((?x125 (- 11)))
(let ((?x381 (+ (+ (* (- 13) |v14:3|) (* (- 12) |v7:10|)) (* 17 |v11:6|))))
(let ((?x139 17))
(let ((?x373 (+ (+ (* (- 2) |v5:12|) (* 18 |v15:2|)) (* (- 15) |v6:11|))))
(let (($x385 (and (<= (+ ?x373 (* (- 19) |v7:10|)) ?x139) (<= (+ ?x381 (* 14 |v1:16|)) ?x125))))
(let (($x402 (or $x385 (and (<= ?x391 ?x82) (<= (+ ?x397 (* 0 |v8:9|)) ?x304)))))
(let ((?x75 (- 13)))
(let ((?x365 (+ (+ (+ (* (- 8) |v9:8|) (* (- 19) |v4:13|)) |v4:13|) (* ?x75 |v5:12|))))
(let ((?x355 (+ (+ (* (- 15) |v11:6|) (* 2 |v6:11|)) (* 11 |v15:2|))))
(let ((?x19 19))
(let ((?x105 (- 2)))
(let ((?x106 (* ?x105 |v12:5|)))
(let ((?x348 (+ (+ (+ (* ?x125 |v12:5|) (* 8 |v15:2|)) ?x106) (* ?x75 |v10:7|))))
(let ((?x30 (- 19)))
(let ((?x339 (+ (+ (* 12 |v16:1|) (* (- 12) |v8:9|)) (* 10 |v11:6|))))
(let (($x368 (or (or (<= (+ ?x339 (* (- 17) |v16:1|)) ?x30) (<= ?x348 ?x19)) (or (<= (+ ?x355 (* 13 |v17:0|)) ?x82) (<= ?x365 ?x75)))))
(let (($x419 (and (and (and $x368 $x402) (<= (+ ?x408 (* (- 4) |v16:1|)) ?x10)) (<= (+ ?x415 (* 18 |v16:1|)) ?x179))))
(let ((?x34 (- 5)))
(let ((?x328 (+ (+ (+ (* ?x304 |v13:4|) (* 3 |v0:17|)) |v15:2|) (* 15 |v7:10|))))
(let ((?x322 (+ (+ (+ (* ?x19 |v4:13|) (* 18 |v4:13|)) |v12:5|) (* ?x139 |v12:5|))))
(let ((?x136 13))
(let ((?x312 (+ (+ (* ?x19 |v2:15|) (* 9 |v13:4|)) (* (- 4) |v13:4|))))
(let ((?x308 (+ (+ (+ (* 8 |v7:10|) |v13:4|) (* ?x304 |v3:14|)) (* 5 |v16:1|))))
(let (($x331 (or (or (<= ?x308 ?x34) (<= (+ ?x312 (* (- 16) |v9:8|)) ?x136)) (or (<= ?x322 ?x179) (<= ?x328 ?x34)))))
(let ((?x172 (- 4)))
(let ((?x38 14))
(let ((?x294 (* ?x38 |v12:5|)))
(let ((?x297 (+ (+ (+ (* ?x172 |v3:14|) (* 16 |v3:14|)) ?x294) (* 5 |v6:11|))))
(let ((?x26 (- 10)))
(let ((?x289 (+ (+ (+ (* ?x139 |v0:17|) (* (- 1) |v9:8|)) |v2:15|) (* ?x125 |v10:7|))))
(let ((?x278 (+ (+ (* 3 |v10:7|) (* ?x19 |v17:0|)) (* 16 |v0:17|))))
(let (($x300 (and (<= (+ ?x278 (* ?x179 |v1:16|)) 6) (and (<= ?x289 ?x26) (<= ?x297 ?x172)))))
(let ((?x270 (+ (+ (+ (* (- 15) |v3:14|) (* ?x26 |v15:2|)) (* ?x75 |v6:11|)) (* (- 18) |v15:2|))))
(let ((?x145 2))
(let ((?x262 (+ (+ (+ (* ?x30 |v14:3|) (* ?x30 |v4:13|)) (* ?x30 |v6:11|)) (* ?x145 |v10:7|))))
(let ((?x95 3))
(let ((?x251 (* ?x95 |v0:17|)))
(let ((?x254 (+ (+ (+ (* (- 6) |v16:1|) (* (- 17) |v15:2|)) ?x251) (* ?x95 |v17:0|))))
(let ((?x241 (+ (+ (* (- 6) |v8:9|) (* 0 |v13:4|)) (* (- 12) |v0:17|))))
(let ((?x98 (- 6)))
(let ((?x231 (+ (+ (* ?x105 |v2:15|) (* (- 20) |v10:7|)) (* (- 14) |v17:0|))))
(let (($x245 (and (<= (+ ?x231 (* ?x139 |v8:9|)) ?x98) (<= (+ ?x241 (* 0 |v3:14|)) ?x75))))
(let (($x333 (and (and (or $x245 (<= ?x254 ?x10)) (or (<= ?x262 ?x145) (<= ?x270 ?x125))) (or $x300 $x331))))
(let ((?x158 4))
(let ((?x221 (+ (+ (+ (* (- 20) |v16:1|) (* ?x136 |v10:7|)) (* ?x172 |v9:8|)) (* (- 15) |v9:8|))))
(let ((?x213 8))
(let ((?x212 (+ (+ (+ (* ?x136 |v15:2|) (* ?x10 |v1:16|)) (* (- 15) |v5:12|)) (* ?x105 |v13:4|))))
(let ((?x175 (* ?x30 |v2:15|)))
(let ((?x199 (+ (+ (+ (* 16 |v2:15|) (* ?x172 |v0:17|)) (* ?x179 |v3:14|)) ?x175)))
(let ((?x192 (+ (+ (+ (* ?x26 |v10:7|) (* ?x34 |v15:2|)) (* ?x26 |v5:12|)) (* 0 |v11:6|))))
(let (($x224 (or (or (<= ?x192 ?x139) (<= ?x199 ?x34)) (or (<= ?x212 ?x213) (<= ?x221 ?x158)))))
(let ((?x50 9))
(let (($x182 (<= (+ (+ (+ (* 7 |v16:1|) ?x175) |v9:8|) (* ?x179 |v0:17|)) ?x50)))
(let ((?x169 (+ (+ (* 16 |v7:10|) (* (- 14) |v10:7|)) (* ?x50 |v12:5|))))
(let ((?x157 (+ (+ (+ (* ?x38 |v8:9|) (* (- 20) |v14:3|)) (* ?x98 |v13:4|)) (* ?x125 |v0:17|))))
(let ((?x147 (+ (+ (+ (* ?x136 |v2:15|) (* ?x139 |v4:13|)) (* 18 |v9:8|)) (* ?x145 |v3:14|))))
(let (($x184 (and (or (<= ?x147 10) (<= ?x157 ?x158)) (or (<= (+ ?x169 (* ?x136 |v9:8|)) ?x172) $x182))))
(let ((?x129 (+ (+ (+ (* ?x26 |v0:17|) (* 16 |v13:4|)) (* ?x125 |v3:14|)) (* 16 |v6:11|))))
(let ((?x43 15))
(let ((?x116 (+ (+ (+ (* ?x75 |v0:17|) ?x106) (* (- 16) |v7:10|)) (* 7 |v12:5|))))
(let ((?x97 (+ (+ (+ (* ?x19 |v2:15|) (* 6 |v8:9|)) (* ?x19 |v6:11|)) (* ?x95 |v14:3|))))
(let ((?x81 (+ (+ (+ (* 12 |v4:13|) (* ?x75 |v16:1|)) (* ?x26 |v17:0|)) (* ?x50 |v4:13|))))
(let (($x132 (and (and (<= ?x81 ?x82) (<= ?x97 ?x98)) (and (<= ?x116 ?x43) (<= ?x129 ?x82)))))
(let ((?x65 (- 20)))
(let ((?x60 (+ (+ (* ?x50 |v13:4|) (* 18 |v17:0|)) (* 11 |v13:4|))))
(let ((?x45 (+ (+ (+ (* ?x30 |v4:13|) (* ?x34 |v9:8|)) (* ?x38 |v5:12|)) (* ?x43 |v11:6|))))
(let ((?x25 (+ (+ (+ (* ?x10 |v4:13|) (* 5 |v8:9|)) (* ?x19 |v14:3|)) (* (- 18) |v14:3|))))
(let (($x68 (or (<= ?x25 ?x26) (or (<= ?x45 ?x38) (<= (+ ?x60 (* 0 |v9:8|)) ?x65)))))
(or (or (and (or $x68 $x132) (or $x184 $x224)) $x333) $x419))))))))))))))))))))))))))))))))))))))))))))))))))))))))))))))))))))))))))))))
)
)
)
)
)
)
)
)
)
)
)
)
)
)
)
)
)
)
(check-sat)
(exit)

